************************************************************************
file with basedata            : j60_41.bas
initial value random generator: 915283457
************************************************************************
projects                      :  1
jobs (incl. supersource/sink ):  62
horizon                       :  283
RESOURCES
  - renewable                 :  4   R
  - nonrenewable              :  0   N
  - doubly constrained        :  0   D
************************************************************************
PROJECT INFORMATION:
pronr.  #jobs rel.date duedate tardcost  MPM-Time
    1     60      0       61       25       61
************************************************************************
PRECEDENCE RELATIONS:
jobnr.    #modes  #successors   successors
   1        1          3           2   3   4
   2        1          3           5  10  18
   3        1          2          12  54
   4        1          3           6   8  11
   5        1          3           7  14  23
   6        1          2           9  31
   7        1          3          13  15  48
   8        1          3          19  37  42
   9        1          1          46
  10        1          2          28  49
  11        1          2          17  44
  12        1          3          29  35  38
  13        1          2          39  46
  14        1          3          17  19  38
  15        1          1          16
  16        1          2          21  49
  17        1          1          34
  18        1          3          20  22  24
  19        1          3          25  27  33
  20        1          1          32
  21        1          1          26
  22        1          3          32  40  41
  23        1          1          41
  24        1          3          30  36  48
  25        1          1          57
  26        1          1          27
  27        1          2          30  31
  28        1          2          30  59
  29        1          2          39  41
  30        1          3          39  54  55
  31        1          1          58
  32        1          1          50
  33        1          2          45  51
  34        1          1          40
  35        1          3          40  47  53
  36        1          3          50  51  61
  37        1          2          52  57
  38        1          3          44  46  47
  39        1          1          56
  40        1          2          49  58
  41        1          3          45  47  55
  42        1          2          43  50
  43        1          2          44  45
  44        1          2          48  52
  45        1          1          56
  46        1          1          61
  47        1          1          58
  48        1          2          51  55
  49        1          1          59
  50        1          1          52
  51        1          2          53  59
  52        1          1          53
  53        1          1          56
  54        1          1          60
  55        1          1          57
  56        1          1          60
  57        1          1          60
  58        1          1          61
  59        1          1          62
  60        1          1          62
  61        1          1          62
  62        1          0        
************************************************************************
REQUESTS/DURATIONS:
jobnr. mode duration  R 1  R 2  R 3  R 4
------------------------------------------------------------------------
  1      1     0       0    0    0    0
  2      1     9       0    0    8    1
  3      1     1       4   10    1    3
  4      1     7       5    5    7    3
  5      1     9       5    3    4    0
  6      1     2       1    6    0    7
  7      1     5       0    7    0    4
  8      1     3       9    1   10    2
  9      1     4       1    0    1    2
 10      1     5      10    2    6    8
 11      1     2       4    3    1    0
 12      1     5       5    5    3   10
 13      1     3       7    0    6    4
 14      1     7      10    2    8    6
 15      1     2       2    0    0    0
 16      1     2       3    6   10    0
 17      1     5       0    0    9    3
 18      1     6      10    0    0    1
 19      1     7       8    4    0   10
 20      1    10       1    0    0    8
 21      1     3       5    0    0    8
 22      1     1       1   10    9    5
 23      1     1       8    3    7    3
 24      1     4       5    2    0    1
 25      1     2       3    8    9    3
 26      1     1       0    6    2    9
 27      1     2       5    0    5    0
 28      1     1       0    4   10    2
 29      1     3       0    4    0    3
 30      1     3       0    6    0    0
 31      1    10       1   10    8    6
 32      1     7       2    0    1    3
 33      1     6       1    0    0    1
 34      1     3       0   10    7    7
 35      1     4      10    6    2    3
 36      1     3       8    5    0    8
 37      1     8       8    7    1   10
 38      1     2      10    0    8    8
 39      1     4       8    6    8    1
 40      1     1       4    7    9    4
 41      1     9       2    7    3   10
 42      1     7       0    1    8    3
 43      1     6      10    0    0    2
 44      1     6       5    7    9    0
 45      1     6       5   10    3    0
 46      1     9       3    0    8   10
 47      1     2       6    2    6    4
 48      1     8       9    5    3    5
 49      1     7       8    4    2    7
 50      1     4       7    5   10    6
 51      1     5       0    0    0    6
 52      1     6       5    0    0    0
 53      1     7       0    3    9    3
 54      1     4       7    9    8    0
 55      1     3       0    9    0    0
 56      1     5       5    3    2   10
 57      1    10      10    1    2    6
 58      1     2       8    0    5    0
 59      1     2       4    6    5    0
 60      1     3       1    1    5    8
 61      1     9       8    0   10    8
 62      1     0       0    0    0    0
************************************************************************
RESOURCEAVAILABILITIES:
  R 1  R 2  R 3  R 4
   17   17   18   17
************************************************************************
